p edge 28 210
n 1 2
n 2 3
n 3 4
n 4 5
n 5 6
n 6 7
n 7 8
n 8 9
n 9 10
n 10 11
n 11 12
n 12 13
n 13 14
n 14 15
n 15 16
n 16 17
n 17 18
n 18 19
n 19 20
n 20 21
n 21 22
n 22 23
n 23 24
n 24 25
n 25 26
n 26 27
n 27 28
n 28 29
e 1 6
e 1 9
e 1 10
e 1 13
e 1 14
e 1 15
e 1 18
e 1 19
e 1 20
e 1 21
e 1 24
e 1 25
e 1 26
e 1 27
e 1 28
e 2 5
e 2 8
e 2 10
e 2 12
e 2 14
e 2 15
e 2 17
e 2 19
e 2 20
e 2 21
e 2 23
e 2 25
e 2 26
e 2 27
e 2 28
e 3 4
e 3 7
e 3 10
e 3 11
e 3 14
e 3 15
e 3 16
e 3 19
e 3 20
e 3 21
e 3 22
e 3 25
e 3 26
e 3 27
e 3 28
e 4 8
e 4 9
e 4 12
e 4 13
e 4 15
e 4 17
e 4 18
e 4 20
e 4 21
e 4 23
e 4 24
e 4 26
e 4 27
e 4 28
e 5 7
e 5 9
e 5 11
e 5 13
e 5 15
e 5 16
e 5 18
e 5 20
e 5 21
e 5 22
e 5 24
e 5 26
e 5 27
e 5 28
e 6 7
e 6 8
e 6 11
e 6 12
e 6 15
e 6 16
e 6 17
e 6 20
e 6 21
e 6 22
e 6 23
e 6 26
e 6 27
e 6 28
e 7 12
e 7 13
e 7 14
e 7 17
e 7 18
e 7 19
e 7 21
e 7 23
e 7 24
e 7 25
e 7 27
e 7 28
e 8 11
e 8 13
e 8 14
e 8 16
e 8 18
e 8 19
e 8 21
e 8 22
e 8 24
e 8 25
e 8 27
e 8 28
e 9 11
e 9 12
e 9 14
e 9 16
e 9 17
e 9 19
e 9 21
e 9 22
e 9 23
e 9 25
e 9 27
e 9 28
e 10 11
e 10 12
e 10 13
e 10 16
e 10 17
e 10 18
e 10 21
e 10 22
e 10 23
e 10 24
e 10 27
e 10 28
e 11 17
e 11 18
e 11 19
e 11 20
e 11 23
e 11 24
e 11 25
e 11 26
e 11 28
e 12 16
e 12 18
e 12 19
e 12 20
e 12 22
e 12 24
e 12 25
e 12 26
e 12 28
e 13 16
e 13 17
e 13 19
e 13 20
e 13 22
e 13 23
e 13 25
e 13 26
e 13 28
e 14 16
e 14 17
e 14 18
e 14 20
e 14 22
e 14 23
e 14 24
e 14 26
e 14 28
e 15 16
e 15 17
e 15 18
e 15 19
e 15 22
e 15 23
e 15 24
e 15 25
e 15 28
e 16 23
e 16 24
e 16 25
e 16 26
e 16 27
e 17 22
e 17 24
e 17 25
e 17 26
e 17 27
e 18 22
e 18 23
e 18 25
e 18 26
e 18 27
e 19 22
e 19 23
e 19 24
e 19 26
e 19 27
e 20 22
e 20 23
e 20 24
e 20 25
e 20 27
e 21 22
e 21 23
e 21 24
e 21 25
e 21 26
